NAME : mar50_1000_0
COMMENT : Data set with 50 points
COMMENT : CIn-UFPE
COMMENT : Contributed by Marcelo Lacerda
TYPE : TSP
DIMENSION : 50
EDGE_WEIGHT_TYPE : EUC_2D
NODE_COORD_SECTION
1 349 382
2 627 465
3 451 590
4 924 495
5 833 159
6 628 461
7 988 719
8 201 480
9 417 746
10 676 425
11 797 582
12 297 605
13 897 233
14 730 682
15 80 366
16 190 557
17 262 486
18 480 973
19 478 970
20 721 84
21 860 309
22 118 350
23 423 99
24 241 612
25 380 992
26 46 665
27 518 985
28 173 965
29 821 976
30 591 876
31 710 295
32 508 246
33 55 570
34 383 54
35 960 422
36 473 687
37 588 309
38 975 251
39 660 808
40 284 618
41 15 515
42 408 351
43 843 201
44 303 466
45 361 89
46 381 726
47 629 21
48 729 967
49 792 619
50 467 442
EOF
